(set-logic HORN)
(set-info :source |
  Benchmark: ./benchmarks/Table1/dynsys.ml
  Generated by Refinement Caml
|)
(set-info :status unknown)
(declare-fun |$P0| (Real) Bool)
(assert (not (exists ((x2 Real)(x0 Real)(x3 Real)(x1 Real)(x5 Real)(x4 Real)) (and (|$P0| x5) (and (and (= (+ x2 x0) 1000.) (>= x3 49.61)) (and (= x1 (* 0.5418 x5)) (and (= x0 (* x1 x5)) (and (= x4 (* 0.0005 x2)) (= x3 (+ x5 x4))))))))))
(assert (forall ((x3 Real)(x2 Real)(x0 Real)(x1 Real)(x5 Real)(x4 Real)) (=> (and (|$P0| x5) (and (and (= (+ x2 x0) 1000.) (< x3 49.61)) (and (= x1 (* 0.5418 x5)) (and (= x0 (* x1 x5)) (and (= x4 (* 0.0005 x2)) (= x3 (+ x5 x4))))))) (|$P0| x3))))
(assert (forall ((x0 Real)) (=> (= x0 0.) (|$P0| x0))))
(check-sat)
